(set-logic HORN)
(declare-datatypes ((Nat_1 0)) (((Z_0 ) (S_0 (unS_0 Nat_1)))))
(declare-fun diseqNat_0 (Nat_1 Nat_1) Bool)
(declare-fun unS_1 (Nat_1 Nat_1) Bool)
(declare-fun isZ_0 (Nat_1) Bool)
(declare-fun isS_0 (Nat_1) Bool)
(assert (forall ((x_101 Nat_1) (x_100 Nat_1))
	(=> (= x_101 (S_0 x_100))
	    (unS_1 x_100 x_101))))
(assert (isZ_0 Z_0))
(assert (forall ((x_102 Nat_1))
	(isS_0 (S_0 x_102))))
(assert (forall ((x_103 Nat_1))
	(diseqNat_0 Z_0 (S_0 x_103))))
(assert (forall ((x_104 Nat_1))
	(diseqNat_0 (S_0 x_104) Z_0)))
(assert (forall ((x_105 Nat_1) (x_106 Nat_1))
	(=> (diseqNat_0 x_105 x_106)
	    (diseqNat_0 (S_0 x_105) (S_0 x_106)))))
(declare-fun add_0 (Nat_1 Nat_1 Nat_1) Bool)
(declare-fun minus_0 (Nat_1 Nat_1 Nat_1) Bool)
(declare-fun le_0 (Nat_1 Nat_1) Bool)
(declare-fun ge_0 (Nat_1 Nat_1) Bool)
(declare-fun lt_0 (Nat_1 Nat_1) Bool)
(declare-fun gt_0 (Nat_1 Nat_1) Bool)
(declare-fun mult_0 (Nat_1 Nat_1 Nat_1) Bool)
(declare-fun div_0 (Nat_1 Nat_1 Nat_1) Bool)
(declare-fun mod_0 (Nat_1 Nat_1 Nat_1) Bool)
(assert (forall ((y_11 Nat_1))
	(add_0 y_11 Z_0 y_11)))
(assert (forall ((x_98 Nat_1) (y_11 Nat_1) (r_0 Nat_1))
	(=> (add_0 r_0 x_98 y_11)
	    (add_0 (S_0 r_0) (S_0 x_98) y_11))))
(assert (forall ((y_11 Nat_1))
	(minus_0 Z_0 Z_0 y_11)))
(assert (forall ((x_98 Nat_1) (y_11 Nat_1) (r_0 Nat_1))
	(=> (minus_0 r_0 x_98 y_11)
	    (minus_0 (S_0 r_0) (S_0 x_98) y_11))))
(assert (forall ((y_11 Nat_1))
	(le_0 Z_0 y_11)))
(assert (forall ((x_98 Nat_1) (y_11 Nat_1))
	(=> (le_0 x_98 y_11)
	    (le_0 (S_0 x_98) (S_0 y_11)))))
(assert (forall ((y_11 Nat_1))
	(ge_0 y_11 Z_0)))
(assert (forall ((x_98 Nat_1) (y_11 Nat_1))
	(=> (ge_0 x_98 y_11)
	    (ge_0 (S_0 x_98) (S_0 y_11)))))
(assert (forall ((y_11 Nat_1))
	(lt_0 Z_0 (S_0 y_11))))
(assert (forall ((x_98 Nat_1) (y_11 Nat_1))
	(=> (lt_0 x_98 y_11)
	    (lt_0 (S_0 x_98) (S_0 y_11)))))
(assert (forall ((y_11 Nat_1))
	(gt_0 (S_0 y_11) Z_0)))
(assert (forall ((x_98 Nat_1) (y_11 Nat_1))
	(=> (gt_0 x_98 y_11)
	    (gt_0 (S_0 x_98) (S_0 y_11)))))
(assert (forall ((y_11 Nat_1))
	(mult_0 Z_0 Z_0 y_11)))
(assert (forall ((x_98 Nat_1) (y_11 Nat_1) (r_0 Nat_1) (z_7 Nat_1))
	(=>	(and (mult_0 r_0 x_98 y_11)
			(add_0 z_7 r_0 y_11))
		(mult_0 z_7 (S_0 x_98) y_11))))
(assert (forall ((x_98 Nat_1) (y_11 Nat_1))
	(=> (lt_0 x_98 y_11)
	    (div_0 Z_0 x_98 y_11))))
(assert (forall ((x_98 Nat_1) (y_11 Nat_1) (r_0 Nat_1) (z_7 Nat_1))
	(=>	(and (ge_0 x_98 y_11)
			(minus_0 z_7 x_98 y_11)
			(div_0 r_0 z_7 y_11))
		(div_0 (S_0 r_0) x_98 y_11))))
(assert (forall ((x_98 Nat_1) (y_11 Nat_1))
	(=> (lt_0 x_98 y_11)
	    (mod_0 x_98 x_98 y_11))))
(assert (forall ((x_98 Nat_1) (y_11 Nat_1) (r_0 Nat_1) (z_7 Nat_1))
	(=>	(and (ge_0 x_98 y_11)
			(minus_0 z_7 x_98 y_11)
			(mod_0 r_0 z_7 y_11))
		(mod_0 r_0 x_98 y_11))))
(declare-datatypes ((Nat_0 0)) (((zero_0 ) (succ_0 (p_0 Nat_0)))))
(declare-fun diseqNat_1 (Nat_0 Nat_0) Bool)
(declare-fun p_1 (Nat_0 Nat_0) Bool)
(declare-fun iszero_0 (Nat_0) Bool)
(declare-fun issucc_0 (Nat_0) Bool)
(assert (forall ((x_109 Nat_0) (x_108 Nat_0))
	(=> (= x_109 (succ_0 x_108))
	    (p_1 x_108 x_109))))
(assert (iszero_0 zero_0))
(assert (forall ((x_110 Nat_0))
	(issucc_0 (succ_0 x_110))))
(assert (forall ((x_111 Nat_0))
	(diseqNat_1 zero_0 (succ_0 x_111))))
(assert (forall ((x_112 Nat_0))
	(diseqNat_1 (succ_0 x_112) zero_0)))
(assert (forall ((x_113 Nat_0) (x_114 Nat_0))
	(=> (diseqNat_1 x_113 x_114)
	    (diseqNat_1 (succ_0 x_113) (succ_0 x_114)))))
(declare-datatypes ((list_0 0)) (((nil_0 ) (cons_0 (head_0 Nat_0) (tail_0 list_0)))))
(declare-fun diseqlist_0 (list_0 list_0) Bool)
(declare-fun head_1 (Nat_0 list_0) Bool)
(declare-fun tail_1 (list_0 list_0) Bool)
(declare-fun isnil_0 (list_0) Bool)
(declare-fun iscons_0 (list_0) Bool)
(assert (forall ((x_118 list_0) (x_116 Nat_0) (x_117 list_0))
	(=> (= x_118 (cons_0 x_116 x_117))
	    (head_1 x_116 x_118))))
(assert (forall ((x_118 list_0) (x_116 Nat_0) (x_117 list_0))
	(=> (= x_118 (cons_0 x_116 x_117))
	    (tail_1 x_117 x_118))))
(assert (isnil_0 nil_0))
(assert (forall ((x_119 Nat_0) (x_120 list_0))
	(iscons_0 (cons_0 x_119 x_120))))
(assert (forall ((x_121 Nat_0) (x_122 list_0))
	(diseqlist_0 nil_0 (cons_0 x_121 x_122))))
(assert (forall ((x_123 Nat_0) (x_124 list_0))
	(diseqlist_0 (cons_0 x_123 x_124) nil_0)))
(assert (forall ((x_125 Nat_0) (x_126 list_0) (x_127 Nat_0) (x_128 list_0))
	(=> (diseqNat_1 x_125 x_127)
	    (diseqlist_0 (cons_0 x_125 x_126) (cons_0 x_127 x_128)))))
(assert (forall ((x_125 Nat_0) (x_126 list_0) (x_127 Nat_0) (x_128 list_0))
	(=> (diseqlist_0 x_126 x_128)
	    (diseqlist_0 (cons_0 x_125 x_126) (cons_0 x_127 x_128)))))
(declare-fun leq_0 (Bool Nat_0 Nat_0) Bool)
(assert (forall ((x_0 Nat_0) (y_0 Nat_0) (z_0 Nat_0) (x_1 Nat_0) (x_25 Bool) (x_26 Bool))
	(=>	(and (= x_25 x_26)
			(leq_0 x_26 z_0 x_1)
			(= x_0 (succ_0 z_0))
			(= y_0 (succ_0 x_1)))
		(leq_0 x_25 x_0 y_0))))
(assert (forall ((x_0 Nat_0) (y_0 Nat_0) (z_0 Nat_0) (x_27 Bool))
	(=>	(and (= x_27 false)
			(= x_0 (succ_0 z_0))
			(= y_0 zero_0))
		(leq_0 x_27 x_0 y_0))))
(assert (forall ((x_0 Nat_0) (y_0 Nat_0) (x_28 Bool))
	(=>	(and (= x_28 true)
			(= x_0 zero_0))
		(leq_0 x_28 x_0 y_0))))
(declare-fun sort_0 (list_0 Nat_0 Nat_0) Bool)
(assert (forall ((x_2 Nat_0) (y_1 Nat_0) (x_30 list_0) (x_29 Bool))
	(=>	(and (= x_30 (cons_0 x_2 (cons_0 y_1 nil_0)))
			(= x_29 true)
			(leq_0 x_29 x_2 y_1))
		(sort_0 x_30 x_2 y_1))))
(assert (forall ((x_2 Nat_0) (y_1 Nat_0) (x_32 list_0) (x_31 Bool))
	(=>	(and (= x_32 (cons_0 y_1 (cons_0 x_2 nil_0)))
			(= x_31 false)
			(leq_0 x_31 x_2 y_1))
		(sort_0 x_32 x_2 y_1))))
(declare-fun insert_0 (list_0 Nat_0 list_0) Bool)
(assert (forall ((x_3 Nat_0) (y_2 list_0) (z_1 Nat_0) (xs_0 list_0) (x_34 list_0) (x_33 Bool))
	(=>	(and (= x_34 (cons_0 x_3 (cons_0 z_1 xs_0)))
			(= y_2 (cons_0 z_1 xs_0))
			(= x_33 true)
			(leq_0 x_33 x_3 z_1))
		(insert_0 x_34 x_3 y_2))))
(assert (forall ((x_3 Nat_0) (y_2 list_0) (z_1 Nat_0) (xs_0 list_0) (x_36 list_0) (x_37 list_0) (x_35 Bool))
	(=>	(and (= x_36 (cons_0 z_1 x_37))
			(insert_0 x_37 x_3 xs_0)
			(= y_2 (cons_0 z_1 xs_0))
			(= x_35 false)
			(leq_0 x_35 x_3 z_1))
		(insert_0 x_36 x_3 y_2))))
(assert (forall ((x_3 Nat_0) (y_2 list_0) (x_38 list_0))
	(=>	(and (= x_38 (cons_0 x_3 nil_0))
			(= y_2 nil_0))
		(insert_0 x_38 x_3 y_2))))
(declare-fun isort_0 (list_0 list_0) Bool)
(assert (forall ((x_4 list_0) (y_3 Nat_0) (xs_1 list_0) (x_39 list_0) (x_40 list_0) (x_41 list_0))
	(=>	(and (= x_39 x_41)
			(isort_0 x_40 xs_1)
			(insert_0 x_41 y_3 x_40)
			(= x_4 (cons_0 y_3 xs_1)))
		(isort_0 x_39 x_4))))
(assert (forall ((x_4 list_0) (x_42 list_0))
	(=>	(and (= x_42 nil_0)
			(= x_4 nil_0))
		(isort_0 x_42 x_4))))
(declare-fun evens_0 (list_0 list_0) Bool)
(declare-fun odds_0 (list_0 list_0) Bool)
(assert (forall ((x_5 list_0) (y_4 Nat_0) (xs_2 list_0) (x_43 list_0) (x_44 list_0))
	(=>	(and (= x_43 (cons_0 y_4 x_44))
			(odds_0 x_44 xs_2)
			(= x_5 (cons_0 y_4 xs_2)))
		(evens_0 x_43 x_5))))
(assert (forall ((x_5 list_0) (x_45 list_0))
	(=>	(and (= x_45 nil_0)
			(= x_5 nil_0))
		(evens_0 x_45 x_5))))
(assert (forall ((x_6 list_0) (y_5 Nat_0) (xs_3 list_0) (x_46 list_0) (x_47 list_0))
	(=>	(and (= x_46 x_47)
			(evens_0 x_47 xs_3)
			(= x_6 (cons_0 y_5 xs_3)))
		(odds_0 x_46 x_6))))
(assert (forall ((x_6 list_0) (x_48 list_0))
	(=>	(and (= x_48 nil_0)
			(= x_6 nil_0))
		(odds_0 x_48 x_6))))
(declare-fun x_7 (list_0 list_0 list_0) Bool)
(assert (forall ((x_8 list_0) (y_6 list_0) (z_2 Nat_0) (xs_4 list_0) (x_49 list_0) (x_50 list_0))
	(=>	(and (= x_49 (cons_0 z_2 x_50))
			(x_7 x_50 xs_4 y_6)
			(= x_8 (cons_0 z_2 xs_4)))
		(x_7 x_49 x_8 y_6))))
(assert (forall ((x_8 list_0) (y_6 list_0) (x_51 list_0))
	(=>	(and (= x_51 y_6)
			(= x_8 nil_0))
		(x_7 x_51 x_8 y_6))))
(declare-fun pairs_0 (list_0 list_0 list_0) Bool)
(assert (forall ((x_9 list_0) (y_7 list_0) (z_3 Nat_0) (x_10 list_0) (x_11 Nat_0) (x_12 list_0) (x_52 list_0) (x_53 list_0) (x_54 list_0) (x_55 list_0))
	(=>	(and (= x_52 x_55)
			(sort_0 x_53 z_3 x_11)
			(pairs_0 x_54 x_10 x_12)
			(x_7 x_55 x_53 x_54)
			(= x_9 (cons_0 z_3 x_10))
			(= y_7 (cons_0 x_11 x_12)))
		(pairs_0 x_52 x_9 y_7))))
(assert (forall ((x_9 list_0) (y_7 list_0) (z_3 Nat_0) (x_10 list_0) (x_56 list_0))
	(=>	(and (= x_56 (cons_0 z_3 x_10))
			(= x_9 (cons_0 z_3 x_10))
			(= y_7 nil_0))
		(pairs_0 x_56 x_9 y_7))))
(assert (forall ((x_9 list_0) (y_7 list_0) (x_57 list_0))
	(=>	(and (= x_57 y_7)
			(= x_9 nil_0))
		(pairs_0 x_57 x_9 y_7))))
(declare-fun stitch_0 (list_0 list_0 list_0) Bool)
(assert (forall ((x_13 list_0) (y_8 list_0) (z_4 Nat_0) (xs_5 list_0) (x_58 list_0) (x_59 list_0))
	(=>	(and (= x_58 (cons_0 z_4 x_59))
			(pairs_0 x_59 xs_5 y_8)
			(= x_13 (cons_0 z_4 xs_5)))
		(stitch_0 x_58 x_13 y_8))))
(assert (forall ((x_13 list_0) (y_8 list_0) (x_60 list_0))
	(=>	(and (= x_60 y_8)
			(= x_13 nil_0))
		(stitch_0 x_60 x_13 y_8))))
(declare-fun bmerge_0 (list_0 list_0 list_0) Bool)
(assert (forall ((x_14 list_0) (y_9 list_0) (z_5 Nat_0) (x_15 list_0) (x_16 Nat_0) (x_17 list_0) (fail_0 list_0) (x_18 Nat_0) (x_19 list_0) (x_68 list_0) (x_61 list_0) (x_62 list_0) (x_63 list_0) (x_64 list_0) (x_65 list_0) (x_66 list_0) (x_67 list_0))
	(=>	(and (= x_68 fail_0)
			(= x_14 (cons_0 z_5 x_15))
			(= y_9 (cons_0 x_16 x_17))
			(= fail_0 x_67)
			(= x_15 (cons_0 x_18 x_19))
			(evens_0 x_61 (cons_0 z_5 x_15))
			(evens_0 x_62 (cons_0 x_16 x_17))
			(bmerge_0 x_63 x_61 x_62)
			(odds_0 x_64 (cons_0 z_5 x_15))
			(odds_0 x_65 (cons_0 x_16 x_17))
			(bmerge_0 x_66 x_64 x_65)
			(stitch_0 x_67 x_63 x_66))
		(bmerge_0 x_68 x_14 y_9))))
(assert (forall ((x_14 list_0) (y_9 list_0) (z_5 Nat_0) (x_15 list_0) (x_16 Nat_0) (x_17 list_0) (fail_0 list_0) (x_20 Nat_0) (x_21 list_0) (x_76 list_0) (x_69 list_0) (x_70 list_0) (x_71 list_0) (x_72 list_0) (x_73 list_0) (x_74 list_0) (x_75 list_0))
	(=>	(and (= x_76 fail_0)
			(= x_14 (cons_0 z_5 x_15))
			(= y_9 (cons_0 x_16 x_17))
			(= fail_0 x_75)
			(= x_15 nil_0)
			(= x_17 (cons_0 x_20 x_21))
			(evens_0 x_69 (cons_0 z_5 x_15))
			(evens_0 x_70 (cons_0 x_16 x_17))
			(bmerge_0 x_71 x_69 x_70)
			(odds_0 x_72 (cons_0 z_5 x_15))
			(odds_0 x_73 (cons_0 x_16 x_17))
			(bmerge_0 x_74 x_72 x_73)
			(stitch_0 x_75 x_71 x_74))
		(bmerge_0 x_76 x_14 y_9))))
(assert (forall ((x_14 list_0) (y_9 list_0) (z_5 Nat_0) (x_15 list_0) (x_16 Nat_0) (x_17 list_0) (fail_0 list_0) (x_84 list_0) (x_85 list_0) (x_77 list_0) (x_78 list_0) (x_79 list_0) (x_80 list_0) (x_81 list_0) (x_82 list_0) (x_83 list_0))
	(=>	(and (= x_84 x_85)
			(sort_0 x_85 z_5 x_16)
			(= x_14 (cons_0 z_5 x_15))
			(= y_9 (cons_0 x_16 x_17))
			(= fail_0 x_83)
			(= x_15 nil_0)
			(= x_17 nil_0)
			(evens_0 x_77 (cons_0 z_5 x_15))
			(evens_0 x_78 (cons_0 x_16 x_17))
			(bmerge_0 x_79 x_77 x_78)
			(odds_0 x_80 (cons_0 z_5 x_15))
			(odds_0 x_81 (cons_0 x_16 x_17))
			(bmerge_0 x_82 x_80 x_81)
			(stitch_0 x_83 x_79 x_82))
		(bmerge_0 x_84 x_14 y_9))))
(assert (forall ((x_14 list_0) (y_9 list_0) (z_5 Nat_0) (x_15 list_0) (x_86 list_0))
	(=>	(and (= x_86 (cons_0 z_5 x_15))
			(= x_14 (cons_0 z_5 x_15))
			(= y_9 nil_0))
		(bmerge_0 x_86 x_14 y_9))))
(assert (forall ((x_14 list_0) (y_9 list_0) (x_87 list_0))
	(=>	(and (= x_87 nil_0)
			(= x_14 nil_0))
		(bmerge_0 x_87 x_14 y_9))))
(declare-fun bsort_0 (list_0 list_0) Bool)
(assert (forall ((x_22 list_0) (y_10 Nat_0) (z_6 list_0) (x_23 Nat_0) (x_24 list_0) (x_88 list_0) (x_89 list_0) (x_90 list_0) (x_91 list_0) (x_92 list_0) (x_93 list_0))
	(=>	(and (= x_88 x_93)
			(evens_0 x_89 (cons_0 y_10 (cons_0 x_23 x_24)))
			(bsort_0 x_90 x_89)
			(odds_0 x_91 (cons_0 y_10 (cons_0 x_23 x_24)))
			(bsort_0 x_92 x_91)
			(bmerge_0 x_93 x_90 x_92)
			(= x_22 (cons_0 y_10 z_6))
			(= z_6 (cons_0 x_23 x_24)))
		(bsort_0 x_88 x_22))))
(assert (forall ((x_22 list_0) (y_10 Nat_0) (z_6 list_0) (x_94 list_0))
	(=>	(and (= x_94 (cons_0 y_10 nil_0))
			(= x_22 (cons_0 y_10 z_6))
			(= z_6 nil_0))
		(bsort_0 x_94 x_22))))
(assert (forall ((x_22 list_0) (x_95 list_0))
	(=>	(and (= x_95 nil_0)
			(= x_22 nil_0))
		(bsort_0 x_95 x_22))))
(assert (forall ((xs_6 list_0) (x_96 list_0) (x_97 list_0))
	(=>	(and (diseqlist_0 x_96 x_97)
			(bsort_0 x_96 xs_6)
			(isort_0 x_97 xs_6))
		false)))
(check-sat)
